[[11, 66, 65, 38, 58, 10, 31, 72, 39, 9, 25, 55, 50, 18, 24, 3, 44, 32, 40, 12, 17, 26], [67, 76, 4, 75, 68, 6, 51, 33, 16, 63, 49, 23, 56, 41, 43, 42, 64, 22, 73, 62, 2, 74, 28, 61, 21, 47, 69], [36, 71, 60, 70, 20, 37, 15, 57, 5, 29, 48, 30, 45, 27, 52, 34, 46, 13, 54, 19, 8, 7, 35, 53, 14, 59]]